50

100 2 303
98 10 416
97 3 311
97 29 436
92 11 319
92 23 291
92 28 374
91 2 408
88 7 364
84 19 360
83 5 253
82 3 283
77 18 418
77 22 399
76 20 260
75 16 304
74 16 391
73 4 317
72 9 405
70 4 371
70 17 264
67 15 361
66 11 338
65 8 417
63 8 438
62 3 316
62 8 335
62 10 335
62 9 295
58 10 441
57 10 415
57 5 389
54 10 360
53 10 448
52 12 205
52 5 437
50 5 163
46 8 214
45 5 427
43 1 269
42 2 169
41 4 445
41 3 249
41 1 432
40 10 393
37 12 195
37 4 305
36 9 171
33 3 249
33 9 392
